language ESSENCE' 1.0
$ loaded file: carseqdata/csplib-instance-33
letting numcars=200
letting numclasses=23
letting numoptions=5
letting optMax=[1, 2, 1, 2, 1]
letting windowSize=[2, 3, 3, 5, 5]
letting numberPerClass=[21, 1, 15, 7, 1, 4, 4, 3, 10, 4, 8, 3, 49, 1, 2, 4, 3, 30, 18, 1, 9, 1, 1]
letting optionsRequired=[[0, 0, 0, 0, 1], [0, 1, 1, 0, 1], [0, 1, 0, 1, 0], [1, 0, 1, 0, 0], [0, 0, 0, 1, 1], [0, 1, 1, 0, 0], [0, 0, 1, 0, 1], [1, 1, 1, 0, 0], [1, 1, 0, 0, 0], [0, 1, 1, 1, 0], [0, 0, 1, 1, 0], [1, 1, 0, 0, 1], [0, 1, 0, 0, 0], [1, 0, 0, 1, 1], [1, 0, 0, 0, 1], [1, 0, 0, 1, 0], [0, 1, 0, 0, 1], [1, 0, 0, 0, 0], [0, 0, 0, 1, 0], [1, 0, 1, 1, 0], [0, 0, 1, 0, 0], [1, 1, 1, 0, 1], [1, 1, 0, 1, 0]]
